p cnf 20 10
-20 6 9 -13 0
-2 -12 -18 -11 -10 13 8 7 -19 20 1 -5 15 -6 -17 16 14 0
20 -12 11 18 0
7 -15 0
-6 -13 9 12 15 0
16 1 18 -3 -5 20 -7 -2 0
-11 12 -10 0
-17 -19 9 -5 15 3 11 -12 10 -4 -13 -6 0
6 -16 5 0
8 17 -14 -13 0
